NAME : d5
COMMENT : Drilling problem (Reinelt)
TYPE : TSP
DIMENSION : 5
EDGE_WEIGHT_TYPE : EUC_2D
NODE_COORD_SECTION
5 5.51200e+02 9.96400e+02
2 6.27400e+02 9.96400e+02
1 7.03600e+02 9.96400e+02
4 7.03600e+02 1.04720e+03
3 6.27400e+02 1.04720e+03
EOF
